
Gurobi 9.5.1 (mac64[x86]) logging started Thu Nov 17 13:13:54 2022

Set parameter LogFile to value "/Users/keyvanmajd/Documents/NNRepLayer/demos/examples/tc7_walking_example/repair_bound_constraint/repair_net/logs/opt_log_11_17_2022_13_13_36.log"
Gurobi Optimizer version 9.5.1 build v9.5.1rc2 (mac64[x86])
Thread count: 4 physical cores, 8 logical processors, using up to 8 threads
Optimize a model with 1910 rows, 1306 columns and 5403 nonzeros
Model fingerprint: 0x29abca5a
Model has 500 quadratic objective terms
Variable types: 906 continuous, 400 integer (400 binary)
Coefficient statistics:
  Matrix range     [1e-03, 2e+03]
  Objective range  [2e-03, 4e+01]
  QObjective range [2e+00, 2e+00]
  Bounds range     [1e+00, 2e+05]
  RHS range        [3e-03, 2e+03]
Presolve removed 203 rows and 8 columns
Presolve time: 0.08s
Presolved: 1707 rows, 1298 columns, 5505 nonzeros
Presolved model has 500 quadratic objective terms
Variable types: 904 continuous, 394 integer (394 binary)
Root relaxation presolve removed 299 rows and 299 columns
Root relaxation presolved: 1408 rows, 999 columns, 4608 nonzeros
Root relaxation presolved model has 500 quadratic objective terms


Root relaxation: objective 3.384945e+02, 1650 iterations, 0.06 seconds (0.06 work units)

    Nodes    |    Current Node    |     Objective Bounds      |     Work
 Expl Unexpl |  Obj  Depth IntInf | Incumbent    BestBd   Gap | It/Node Time

     0     0  364.24553    0  321          -  364.24553      -     -    0s
     0     0  389.61372    0  267          -  389.61372      -     -    1s
     0     0  389.61372    0  267          -  389.61372      -     -    1s
     0     0  403.96850    0  237          -  403.96850      -     -    2s
     0     0  403.97321    0  237          -  403.97321      -     -    2s
     0     0  404.14403    0  230          -  404.14403      -     -    2s
     0     0  404.18686    0  230          -  404.18686      -     -    5s
H    0     0                    2.757107e+08  404.18686   100%     -    6s
     0     2 63271.5108    0  230 2.7571e+08 63271.5108   100%     -    7s
H  139   122                    4.228562e+07 142896.871   100%  33.8    9s
   426   277 869300.520    8  291 4.2286e+07 168397.201   100%  30.5   10s
H  779   433                    6483582.7118 168400.016  97.4%  26.6   11s
H  856   461                    6476271.9834 168400.016  97.4%  25.6   11s
* 1199   453             140    2474866.1781 168400.551  93.2%  23.6   11s
* 1504   444             130    1768737.5500 168573.188  90.5%  23.6   12s
* 1657   453             140    1072361.1853 169969.849  84.1%  23.2   12s
* 1880   410             127    1017726.5068 169969.868  83.3%  22.1   12s
* 2057   498              76    1004050.0731 215402.148  78.5%  21.9   13s
H 2240    75                    336311.70536 215402.148  36.0%  20.7   13s
  2243    68 262099.196   42  302 336311.705 215402.148  36.0%  20.7   24s
  2244    69 279270.830   87  230 336311.705 215402.148  36.0%  20.7   32s
  2252    75 215402.148   12  148 336311.705 215402.148  36.0%  22.2   35s

Cutting planes:
  Learned: 4
  Gomory: 2
  Cover: 3
  Implied bound: 42
  Clique: 1
  MIR: 35
  StrongCG: 1
  Flow cover: 87
  RLT: 249
  Relax-and-lift: 22

Explored 2256 nodes (53554 simplex iterations) in 35.41 seconds (19.68 work units)
Thread count was 8 (of 8 available processors)

Solution count 10: 336312 1.00405e+06 1.01773e+06 ... 2.75711e+08

Optimal solution found (tolerance 1.00e-02)
Best objective 3.363117053601e+05, best bound 3.362864836598e+05, gap 0.0075%
